NAME MaterToy
ROWS
 N  OBJ
 G  eta_lb  
COLUMNS
    X[1]      OBJ       -1.5
    X[2]      OBJ       -4
    eta       OBJ       1
    eta       eta_lb    1
RHS
    RHS1      eta_lb    -1e+100
BOUNDS
ENDATA
